letting initialStacks = [5, 9, 37, 17, 34, 8, 1, 6, 18, 29, 10, 48, 7, 35, 45, 24, 20, 46, 16, 44, 12, 38, 31, 15, 33, 21, 25, 27, 40, 13, 26, 43, 14, 23, 41, 28, 32, 47, 49, 36, 4, 50, 30, 22, 42, 2, 11, 39, 51, 3, 19]
